K = 3;
V = 20;
edge_weight = [|0, -1, 33, -1, -1, -1, -1, 58, -1, -1, -1, -1, -1, -1, -1, -1, -1, -1, -1, -1|
-1, 0, -1, -1, 43, 47, 76, -1, -1, -1, -1, -1, -1, -1, -1, 78, -1, -1, -1, -1|
-1, -1, 0, -1, -1, -1, -1, -1, 32, -1, -1, -1, -1, -1, 66, -1, -1, -1, -1, -1|
-1, -1, -1, 0, -1, -1, -1, -1, -1, 13, -1, -1, -1, -1, -1, -1, -1, -1, -1, -1|
-1, -1, 93, -1, 0, -1, -1, -1, -1, -1, 4, -1, -1, -1, -1, 84, -1, -1, -1, 2|
-1, -1, -1, -1, -1, 0, 32, -1, -1, -1, -1, -1, -1, -1, -1, -1, -1, -1, -1, -1|
-1, 65, -1, -1, -1, -1, 0, -1, -1, -1, -1, 72, -1, -1, -1, -1, 30, 83, -1, -1|
-1, -1, -1, -1, -1, -1, -1, 0, -1, -1, -1, -1, -1, -1, -1, -1, -1, -1, 28, -1|
-1, -1, -1, -1, -1, -1, -1, -1, 0, -1, -1, -1, -1, -1, 72, -1, -1, -1, 60, -1|
18, -1, -1, -1, -1, -1, -1, -1, -1, 0, -1, -1, -1, -1, -1, -1, -1, -1, -1, -1|
17, -1, -1, -1, -1, -1, -1, -1, -1, -1, 0, -1, -1, -1, -1, -1, -1, -1, -1, -1|
68, 34, -1, -1, -1, -1, 97, -1, -1, -1, -1, 0, -1, -1, 54, -1, -1, -1, -1, 93|
-1, -1, -1, 70, -1, 87, -1, -1, -1, -1, -1, 91, 0, 7, -1, -1, -1, -1, -1, -1|
-1, -1, -1, -1, 72, -1, -1, -1, -1, -1, -1, -1, 87, 0, -1, 29, 24, -1, -1, 95|
-1, -1, -1, -1, -1, 45, -1, -1, -1, -1, -1, -1, -1, -1, 0, -1, -1, 89, -1, 52|
-1, -1, 76, -1, -1, -1, -1, -1, -1, 53, 59, 58, 34, -1, -1, 0, -1, -1, 53, -1|
-1, 16, -1, -1, -1, -1, -1, -1, -1, 63, 73, -1, -1, -1, -1, -1, 0, -1, -1, -1|
-1, -1, 54, -1, 13, 42, -1, -1, -1, -1, -1, -1, -1, -1, -1, -1, -1, 0, -1, -1|
-1, -1, -1, -1, 48, 6, -1, -1, -1, -1, -1, -1, -1, -1, 69, -1, -1, 17, 0, -1|
-1, -1, -1, -1, -1, -1, -1, -1, -1, 62, 2, -1, 93, -1, 37, -1, -1, -1, -1, 0|];
